ssat_solver_solve2
#level: 2
Abc_NtkNodeNum(s->pNtk): 237  , BDD limit: 10240
level 1: 20 element
Exist
existence_eliminate_scope
Abc_NtkIsBddLogic(pNtk): 0
Abc_NtkIsStrash(pNtk): 1
existence_eliminate_scope_aig
exist by BDD failed
Abc_NtkNodeNum(s->pNtk): 2794395  , BDD limit: 3353274
Build BDD success
level 0: 20 element
Random
c ssat solving in ABC
#var: 40
s SATISFIABLE
  > Upper bound = 6.096172e-02
  > Lower bound = 6.096172e-02
FINISHED CPU 50.62 MEM 531224 MAXMEM 555836 STALE 0 MAXMEM_RSS 500752
<time name="ALL">50730</time>
real 50.89
user 58.63
sys 22.67
